20 24 66 33 26 38 44 45 43 31 11 
63 67 74 35 14 42 
27 68 65 60 18 1 47 25 48 8 12 
22 30 61 64 55 39 4 28 52 15 21 13 3 41 
56 40 46 51 9 
49 53 17 
62 54 70 34 10 
29 6 32 69 2 5 7 37 36 59 58 23 57 19 16 75 71 73 72 50 

